#######################################
### Exact MIP solver for the HHCRSP ###
#######################################
-- Instance file: new-instances/HHCRSP_50_10_78_1.6_C_C.txt
-- Max threads: 4
-- Time limit: 999999 seconds
-- Use initial solution: No
Trivial flow violations prevented generating 6109 variables.
Model exported.
Version identifier: 20.1.0.0 | 2020-11-10 | 9bedb6d68
CPXPARAM_Threads                                 4
CPXPARAM_TimeLimit                               999999
Parallel mode: deterministic, using up to 4 threads for concurrent optimization:
 * Starting dual Simplex on 1 thread...
 * Starting Barrier on 3 threads...
Tried aggregator 1 time.
LP Presolve eliminated 1398 rows and 316 columns.
Reduced LP has 6982 rows, 6736 columns, and 59351 nonzeros.
Presolve time = 0.03 sec. (17.34 ticks)
Symmetry aggregator did 5189 additional substitutions.

Iteration log . . .
Iteration:     1   Dual objective     =             0.000000

Dual crossover.
  Dual:  Fixing 54 variables.
       53 DMoves:  Infeasibility  5.88418203e-15  Objective  6.53339867e+01
        0 DMoves:  Infeasibility  8.17329873e-15  Objective  6.53339867e+01
  Dual:  Pushed 5, exchanged 49.
  Primal:  Fixing 28 variables.
       27 PMoves:  Infeasibility  0.00000000e+00  Objective  6.53339867e+01
        0 PMoves:  Infeasibility  0.00000000e+00  Objective  6.53339867e+01
  Primal:  Pushed 6, exchanged 22.

Dual simplex solved model.


Solution status from MIP model:
-- Processing time: 0.065 sec.
-- Memory used: 73.5088 MB
-- Best bound: inf
-- Obj value: 65.334
-- Gap: inf%
-- Total distance: 196.002
-- Total tardiness: 0
-- Largest tardiness: 0
